unsat
( c0
  c1
  c108
  c109
  c110
  c111
  c112
  c113
  c114
  c115
  c12
  c120
  c125
  c134
  c138
  c140
  c147
  c149
  c15
  c153
  c156
  c174
  c179
  c18
  c188
  c19
  c192
  c194
  c2
  c20
  c201
  c203
  c210
  c212
  c226
  c227
  c228
  c233
  c242
  c246
  c248
  c255
  c257
  c264
  c280
  c282
  c287
  c296
  c30
  c300
  c302
  c304
  c306
  c309
  c311
  c318
  c32
  c33
  c36
  c37
  c38
  c383
  c385
  c386
  c405
  c441
  c46
  c469
  c48
  c480
  c489
  c51
  c518
  c522
  c54
  c546
  c55
  c550
  c56
  c563
  c564
  c565
  c566
  c569
  c571
  c572
  c573
  c574
  c575
  c576
  c577
  c584
  c585
  c586
  c587
  c60
  c605
  c609
  c614
  c618
  c623
  c627
  c63
  c632
  c636
  c64
  c640
  c643
  c652
  c655
  c661
  c664
  c673
  c678
  c682
  c687
  c689
  c69
  c693
  c695
  c698
  c700
  c704
  c709
  c710
  c713
  c714
  c723
  c724
  c88 )
